 vasp.5.4.4.18Apr17-6-g9f103f2a35 (build Feb 18 2020 20:24:19) complex

 executed on             LinuxIFC date 2021.10.07  20:39:02

 INCAR:
 POTCAR:    PAW_PBE V_sv 02Aug2007
 POTCAR:    PAW_PBE Pt 04Feb2005
 POTCAR:    PAW_PBE V_sv 02Aug2007

 POTCAR:    PAW_PBE Pt 04Feb2005

  PAW_PBE V_sv 02Aug2007                :
  PAW_PBE Pt 04Feb2005                  :

 POSCAR: V1 Pt3
  positions in direct lattice
  velocities in cartesian coordinates
 exchange correlation table for  LEXCH =        8
   RHO(1)=    0.500       N(1)  =     2000
   RHO(2)=  100.500       N(2)  =     4000

 ion  position               nearest neighbor table
   1  0.000  0.000  0.000-   2 2.78   2 2.78   2 2.78   2 2.78   4 2.78   3 2.78   4 2.78   4 2.78
                             4 2.78   3 2.78   3 2.78   3 2.78
   2  0.500  0.500  0.000-   1 2.78   1 2.78   1 2.78   1 2.78   4 2.78   3 2.78   3 2.78   3 2.78
                             4 2.78   4 2.78   4 2.78   3 2.78
   3  0.500  0.000  0.500-   4 2.78   4 2.78   4 2.78   4 2.78   2 2.78   2 2.78   2 2.78   2 2.78
                             1 2.78   1 2.78   1 2.78   1 2.78
   4  0.000  0.500  0.500-   3 2.78   3 2.78   3 2.78   3 2.78   2 2.78   1 2.78   2 2.78   1 2.78
                             2 2.78   1 2.78   2 2.78   1 2.78

  LATTYP: Found a simple tetragonal cell.
 ALAT       =     3.9340210332
 C/A-ratio  =     1.0001989908

  Lattice vectors:

 A1 = (   3.9340210332,  -0.0000000003,   0.0000000000)
 A2 = (   0.0000000003,   3.9340210332,   0.0000000000)
 A3 = (   0.0000000000,   0.0000000000,   3.9348038672)

Analysis of symmetry for initial positions (statically):
 Subroutine PRICEL returns:
 Original cell was already a primitive cell.

 Routine SETGRP: Setting up the symmetry group for a
 simple tetragonal supercell.

 Subroutine GETGRP returns: Found 16 space group operations
 (whereof 16 operations were pure point group operations)
 out of a pool of 16 trial point group operations.

The static configuration has the point symmetry D_4h.

Analysis of symmetry for dynamics (positions and initial velocities):
 Subroutine PRICEL returns:
 Original cell was already a primitive cell.

[...]

The dynamic configuration has the point symmetry D_4h.

Analysis of structural, dynamic, and magnetic symmetry:
 Subroutine PRICEL returns:
 Original cell was already a primitive cell.

 Routine SETGRP: Setting up the symmetry group for a
 simple tetragonal supercell.

 Subroutine GETGRP returns: Found  8 space group operations
 (whereof  8 operations were pure point group operations)
 out of a pool of 16 trial point group operations.

The (compounded) configuration has the point symmetry C_4h.

 Subroutine INISYM returns: Found  8 space group operations
 (whereof  8 operations are pure point group operations),
 and found     1 'primitive' translations

 KPOINTS: CUB (simple cubic) G-X-M-G-R-X M-R
  interpolating k-points between supplied coordinates
  k-points in reciprocal lattice
Space group operators:
 irot       det(A)        alpha          n_x          n_y          n_z        tau_x        tau_y        tau_z
    1     1.000000     0.000000     1.000000     0.000000     0.000000     0.000000     0.000000     0.000000
    2    -1.000000     0.000000     1.000000     0.000000     0.000000     0.000000     0.000000     0.000000
    3     1.000000    90.000000     0.000000     0.000000    -1.000000     0.000000     0.000000     0.000000
    4    -1.000000    90.000000     0.000000     0.000000    -1.000000     0.000000     0.000000     0.000000
    5     1.000000   180.000000     0.000000     0.000000     1.000000     0.000000     0.000000     0.000000
    6    -1.000000   180.000000     0.000000     0.000000     1.000000     0.000000     0.000000     0.000000
    7     1.000000    90.000000     0.000000     0.000000     1.000000     0.000000     0.000000     0.000000
    8    -1.000000    90.000000     0.000000     0.000000     1.000000     0.000000     0.000000     0.000000

 SYSTEM =  VPt3
 POSCAR =  V1 Pt3

 Startparameter for this run:
   NWRITE =      1    write-flag & timer
   PREC   = normal    normal or accurate (medium, high low for compatibility)
   ISTART =      0    job   : 0-new  1-cont  2-samecut
   ICHARG =     11    charge: 1-file 2-atom 10-const
   ISPIN  =      1    spin polarized calculation?
   LNONCOLLINEAR =      T non collinear calculations
   LSORBIT =      T    spin-orbit coupling
   INIWAV =      1    electr: 0-lowe 1-rand  2-diag
   LASPH  =      F    aspherical Exc in radial PAW
   METAGGA=      F    non-selfconsistent MetaGGA calc.

 Electronic Relaxation 1
   ENCUT  =  400.0 eV  29.40 Ry    5.42 a.u.   6.42  6.42  6.42*2*pi/ulx,y,z
   ENINI  =  400.0     initial cutoff
   ENAUG  =  526.6 eV  augmentation charge cutoff
   NELM   =     60;   NELMIN=  2; NELMDL= -5     # of ELM steps
   EDIFF  = 0.1E-06   stopping-criterion for ELM
   LREAL  =      F    real-space projection
   NLSPLINE    = F    spline interpolate recip. space projectors
   LCOMPAT=      F    compatible to vasp.4.4
   GGA_COMPAT  = T    GGA compatible to vasp.4.4-vasp.4.6
   LMAXPAW     = -100 max onsite density
   LMAXMIX     =    6 max onsite mixed and CHGCAR
   VOSKOWN=      1    Vosko Wilk Nusair interpolation
   ROPT   =    0.00000   0.00000
 Ionic relaxation
   EDIFFG = 0.1E-03   stopping-criterion for IOM
   NSW    =      0    number of steps for IOM
   NBLOCK =      1;   KBLOCK =      1    inner block; outer block
   IBRION =     -1    ionic relax: 0-MD 1-quasi-New 2-CG
   NFREE  =      0    steps in history (QN), initial steepest desc. (CG)
   ISIF   =      3    stress and relaxation
   IWAVPR =     10    prediction:  0-non 1-charg 2-wave 3-comb
   ISYM   =      2    0-nonsym 1-usesym 2-fastsym
   LCORR  =      T    Harris-Foulkes like correction to forces

   POTIM  = 0.5000    time-step for ionic-motion
   TEIN   =    0.0    initial temperature
   TEBEG  =    0.0;   TEEND  =   0.0 temperature during run
   SMASS  =  -3.00    Nose mass-parameter (am)
   estimated Nose-frequenzy (Omega)   =  0.10E-29 period in steps =****** mass=  -0.354E-27a.u.
   SCALEE = 1.0000    scale energy and forces
   NPACO  =    256;   APACO  = 16.0  distance and # of slots for P.C.
   PSTRESS=    0.0 pullay stress

  Mass of Ions in am
   POMASS =  50.94195.08
  Ionic Valenz
   ZVAL   =  13.00 10.00
  Atomic Wigner-Seitz radii
  virtual crystal weights
   VCA    =   1.00  1.00
   NELECT =      43.0000    total number of electrons
   NUPDOWN=      -1.0000    fix difference up-down

 DOS related values:
   EMIN   =  10.00;   EMAX   =-10.00  energy-range for DOS
   EFERMI =   0.00
   ISMEAR =    -1;   SIGMA  =   0.00  broadening in eV -4-tet -1-fermi 0-gaus

 Electronic relaxation 2 (details)
   IALGO  =     38    algorithm
   LDIAG  =      T    sub-space diagonalisation (order eigenvalues)
   LSUBROT=      F    optimize rotation matrix (better conditioning)
   TURBO    =      0    0=normal 1=particle mesh
   IRESTART =      0    0=no restart 2=restart with 2 vectors
   NREBOOT  =      0    no. of reboots
   NMIN     =      0    reboot dimension
   EREF     =   0.00    reference energy to select bands
   IMIX   =      4    mixing-type and parameters
     AMIX     =   0.40;   BMIX     =  1.00
     AMIX_MAG =   1.60;   BMIX_MAG =  1.00
     AMIN     =   0.10
     WC   =   100.;   INIMIX=   1;  MIXPRE=   1;  MAXMIX= -45

 Intra band minimization:
   WEIMIN = 0.0000     energy-eigenvalue tresh-hold
   EBREAK =  0.45E-09  absolut break condition
   DEPER  =   0.30     relativ break condition

   TIME   =   0.40     timestep for ELM

  volume/ion in A,a.u.               =      15.22       102.74
  Fermi-wavevector in a.u.,A,eV,Ry     =   1.457803  2.754848 28.914959  2.125190
  Thomas-Fermi vector in A             =   2.574562

 Write flags
   LWAVE        =      F    write WAVECAR
   LDOWNSAMPLE  =      F    k-point downsampling of WAVECAR
   LCHARG       =      F    write CHGCAR
   LVTOT        =      F    write LOCPOT, total local potential
   LVHAR        =      F    write LOCPOT, Hartree potential only
   LELF         =      F    write electronic localiz. function (ELF)
   LORBIT       =     11    0 simple, 1 ext, 2 COOP (PROOUT), +10 PAW based schemes

 Dipole corrections
   LMONO  =      F    monopole corrections only (constant potential shift)
   LDIPOL =      F    correct potential (dipole corrections)
   IDIPOL =      0    1-x, 2-y, 3-z, 4-all directions
   EPSILON=  1.0000000 bulk dielectric constant

 LDA+U is selected, type is set to LDAUTYPE =  2
   angular momentum for each species LDAUL =     2   -1
   U (eV)           for each species LDAUU =   2.0  0.0
   J (eV)           for each species LDAUJ =   0.0  0.0
 Exchange correlation treatment:
   GGA     =    --    GGA type
   VOSKOWN=      1    Vosko Wilk Nusair interpolation
   LHFCALC =     F    Hartree Fock is set to
   LHFONE  =     F    Hartree Fock one center treatment
   AEXX    =    0.0000 exact exchange contribution

 Linear response parameters
   LEPSILON=     F    determine dielectric tensor
   LRPA    =     F    only Hartree local field effects (RPA)
   LNABLA  =     F    use nabla operator in PAW spheres
   LVEL    =     F    velocity operator in full k-point grid
   LINTERFAST=   F  fast interpolation
   KINTER  =     0    interpolate to denser k-point grid
   CSHIFT  =0.1000    complex shift for real part using Kramers Kronig
   OMEGAMAX=  -1.0    maximum frequency
   DEG_THRESHOLD= 0.2000000E-02 threshold for treating states as degnerate
   RTIME   =   -0.100 relaxation time in fs
  (WPLASMAI=    0.000 imaginary part of plasma frequency in eV, 0.658/RTIME)
   DFIELD  = 0.0000000 0.0000000 0.0000000 field for delta impulse in time

 Orbital magnetization related:
   ORBITALMAG=     F  switch on orbital magnetization
   LCHIMAG   =     F  perturbation theory with respect to B field
   DQ        =  0.001000  dq finite difference perturbation B field
   LLRAUG    =     F  two centre corrections for induced B field

 Static calculation
 charge density and potential remain constant during run
 non collinear spin polarized calculation
 Variant of blocked Davidson
 Davidson routine will perform the subspace rotation
 perform sub-space diagonalisation
    after iterative eigenvector-optimisation
 no mixing
 using additional bands           34
 reciprocal scheme for non local part
 use partial core corrections
 calculate Harris-corrections to forces
   (improved forces if not selfconsistent)
 use gradient corrections
 WARNING: stress and forces are not correct
  (second derivative of E(xc) not defined)
 use of overlap-Matrix (Vanderbilt PP)
 Fermi-smearing in eV        SIGMA  =   0.00

  energy-cutoff  :      400.00
  volume of cell :       60.90
      direct lattice vectors                 reciprocal lattice vectors
     3.934021033 -0.000000000  0.000000000     0.254192845 -0.000000000  0.000000000
     0.000000000  3.934021033  0.000000000     0.000000000  0.254192845  0.000000000
     0.000000000  0.000000000  3.934803867     0.000000000  0.000000000  0.254142273

  length of vectors
     3.934021033  3.934021033  3.934803867     0.254192845  0.254192845  0.254142273

[...]
 k-point ** :   0.1020 0.1020 0.0000  plane waves:    2202
 k-point ** :   0.0918 0.0918 0.0000  plane waves:    2210
 k-point ** :   0.0816 0.0816 0.0000  plane waves:    2202
 k-point ** :   0.0714 0.0714 0.0000  plane waves:    2226
 k-point ** :   0.0612 0.0612 0.0000  plane waves:    2218
 k-point ** :   0.0510 0.0510 0.0000  plane waves:    2218
 k-point ** :   0.0408 0.0408 0.0000  plane waves:    2210
 k-point ** :   0.0306 0.0306 0.0000  plane waves:    2210
 k-point ** :   0.0204 0.0204 0.0000  plane waves:    2226
 k-point ** :   0.0102 0.0102 0.0000  plane waves:    2266
 k-point ** :   0.0000 0.0000 0.0000  plane waves:    2282
 k-point ** :   0.0000 0.0000 0.0000  plane waves:    2282
 k-point ** :   0.0102 0.0102 0.0102  plane waves:    2252
 k-point ** :   0.0204 0.0204 0.0204  plane waves:    2222
 k-point ** :   0.0306 0.0306 0.0306  plane waves:    2198
 k-point ** :   0.0408 0.0408 0.0408  plane waves:    2198
 k-point ** :   0.0510 0.0510 0.0510  plane waves:    2210
 k-point ** :   0.0612 0.0612 0.0612  plane waves:    2222
 k-point ** :   0.0714 0.0714 0.0714  plane waves:    2214
 k-point ** :   0.0816 0.0816 0.0816  plane waves:    2198
[...]
 k-point ** :   0.5000 0.5000 0.3571  plane waves:    2168
 k-point ** :   0.5000 0.5000 0.3673  plane waves:    2168
 k-point ** :   0.5000 0.5000 0.3776  plane waves:    2168
 k-point ** :   0.5000 0.5000 0.3878  plane waves:    2160
 k-point ** :   0.5000 0.5000 0.3980  plane waves:    2160
 k-point ** :   0.5000 0.5000 0.4082  plane waves:    2160
 k-point ** :   0.5000 0.5000 0.4184  plane waves:    2160
 k-point ** :   0.5000 0.5000 0.4286  plane waves:    2160
 k-point ** :   0.5000 0.5000 0.4388  plane waves:    2160
 k-point ** :   0.5000 0.5000 0.4490  plane waves:    2160
 k-point ** :   0.5000 0.5000 0.4592  plane waves:    2176
 k-point ** :   0.5000 0.5000 0.4694  plane waves:    2176
 k-point ** :   0.5000 0.5000 0.4796  plane waves:    2176
 k-point ** :   0.5000 0.5000 0.4898  plane waves:    2176
 k-point ** :   0.5000 0.5000 0.5000  plane waves:    2176

 maximum and minimum number of plane-waves per node :       210      160

 maximum number of plane-waves:      2282
 maximum index in each direction:
   IXMAX=    6   IYMAX=    6   IZMAX=    6
   IXMIN=   -6   IYMIN=   -6   IZMIN=   -6

 parallel 3D FFT for wavefunctions:
    minimum data exchange during FFTs selected (reduces bandwidth)
 parallel 3D FFT for charge:
    minimum data exchange during FFTs selected (reduces bandwidth)

 initial charge density was supplied:
 number of electron      43.0000251 magnetization      -0.0000000      0.0000000      1.4211468
 keeping initial charge density in first step

 Maximum index for augmentation-charges          481 (set IRDMAX)

 First call to EWALD:  gamma=   0.451
 Maximum number of real-space cells 3x 3x 3
 Maximum number of reciprocal cells 3x 3x 3

--------------------------------------- Iteration      1(   1)  ---------------------------------------

 eigenvalue-minimisations  : 36304
 total energy-change (2. order) : 0.3483714E+03  (-0.1956156E+04)
 number of electron      43.0000251 magnetization      -0.0000000      0.0000000      1.4211468
 augmentation part       43.0000251 magnetization      -0.0000000      0.0000000      1.4211468

 Free energy of the ion-electron system (eV)
  alpha Z        PSCENC =       267.72829227
  Ewald energy   TEWEN  =     -3906.35272624
  -Hartree energ DENC   =      -639.80685285
  -exchange      EXHF   =         0.00000000
  -V(xc)+E(xc)   XCENC  =        79.98680725
  PAW double counting   =      4504.57742708    -4447.57995054
  entropy T*S    EENTRO =        -0.00007933
  eigenvalues    EBANDS =       350.39988475
  atomic energy  EATOM  =      4139.41857774
  Solvation  Ediel_sol  =         0.00000000
  free energy    TOTEN  =       348.37138015 eV

  energy without entropy =      348.37145948  energy(sigma->0) =      348.37141981

[...]

 eigenvalue-minimisations  : 36592
 total energy-change (2. order) :-0.3580899E+03  (-0.3370705E+03)
 number of electron      43.0000251 magnetization      -0.0000000      0.0000000      1.4211468
 augmentation part       43.0000251 magnetization      -0.0000000      0.0000000      1.4211468

[...]

 total charge

# of ion       s       p       d       tot
    1        2.241   6.185   3.045  11.471
    2        0.683   0.639   8.019   9.341
    3        0.666   0.671   7.930   9.266
    4        0.637   0.666   7.971   9.275
tot          4.228   8.161  26.965  39.353

 magnetization (x)

[...]

 magnetization (y)

[...]

 magnetization (z)

[...]

--------------------------------------- Iteration      1(   9)  ---------------------------------------

 eigenvalue-minimisations  : 23440
 total energy-change (2. order) :-0.1141052E-07  (-0.1172126E-07)
 number of electron      43.0000251 magnetization      -0.0000000      0.0000000      1.4211468
 augmentation part       43.0000251 magnetization      -0.0000000      0.0000000      1.4211468

 Free energy of the ion-electron system (eV)
  alpha Z        PSCENC =       267.72829227
  Ewald energy   TEWEN  =     -3906.35272624
  -Hartree energ DENC   =      -639.80685285
  -exchange      EXHF   =         0.00000000
  -V(xc)+E(xc)   XCENC  =        79.98680725
  PAW double counting   =      4504.57742708    -4447.57995054
  entropy T*S    EENTRO =        -0.00012998
  eigenvalues    EBANDS =       -24.24718091
  atomic energy  EATOM  =      4139.41857774
  Solvation  Ediel_sol  =         0.00000000
  free energy    TOTEN  =       -26.27573617 eV

  energy without entropy =      -26.27560618  energy(sigma->0) =      -26.27567118

 average (electrostatic) potential at core
  the test charge radii are     0.9956  1.2059
  (the norm of the test charge is              1.0000)
       1 -70.2553       2 -63.5945       3 -63.5980       4 -63.5980

 E-fermi :  10.8720     XC(G=0): -13.1249     alpha+bet :-16.4770

 k-point     1 :       0.0000    0.0000    0.0000
  band No.  band energies     occupation
      1     -54.8060      1.00000
      2     -52.9887      1.00000
      3     -28.9772      1.00000
      4     -28.7274      1.00000
      5     -28.3585      1.00000
      6     -27.0175      1.00000
      7     -26.7735      1.00000
      8     -26.5629      1.00000
      9       1.0509      1.00000
     10       1.1297      1.00000
     11       3.8228      1.00000
     12       3.8234      1.00000
     13       4.1651      1.00000
     14       4.1690      1.00000
     15       4.4110      1.00000
     16       4.4154      1.00000
     17       4.4803      1.00000
     18       4.4906      1.00000
     19       4.5998      1.00000
     20       4.6285      1.00000
     21       4.6695      1.00000
     22       4.6909      1.00000
     23       7.3414      1.00000
     24       7.3480      1.00000
     25       7.3834      1.00000
     26       7.3920      1.00000
     27       8.0413      1.00000
     28       8.0543      1.00000
     29       9.4368      1.00000
     30       9.4402      1.00000
     31       9.5232      1.00000
     32       9.5233      1.00000
     33      10.5192      1.00000
     34      10.5982      1.00000
     35      10.6257      1.00000
     36      10.6705      1.00000
     37      10.6889      1.00000
     38      10.7306      1.00000
     39      11.1467      0.00000
     40      11.2618      0.00000
     41      11.4123      0.00000
     42      11.4896      0.00000
     43      12.1328      0.00000
     44      12.1644      0.00000
     45      12.2028      0.00000
     46      12.2497      0.00000
     47      12.3484      0.00000
     48      12.3776      0.00000
     49      12.4090      0.00000
     50      12.8697      0.00000
     51      12.9247      0.00000
     52      13.5067      0.00000
     53      13.5189      0.00000
     54      13.6491      0.00000
     55      13.6796      0.00000
     56      13.6902      0.00000

[...]

 k-point   300 :       0.5000    0.5000    0.5000
  band No.  band energies     occupation
      1     -54.8049      1.00000
      2     -52.9870      1.00000
      3     -28.9812      1.00000
      4     -28.7318      1.00000
      5     -28.3639      1.00000
      6     -27.0225      1.00000
      7     -26.7790      1.00000
      8     -26.5688      1.00000
      9       3.8279      1.00000
     10       3.8302      1.00000
     11       3.8897      1.00000
     12       3.8983      1.00000
     13       3.9012      1.00000
     14       3.9060      1.00000
     15       4.1185      1.00000
     16       4.1864      1.00000
     17       6.2387      1.00000
     18       6.2762      1.00000
     19       6.2976      1.00000
     20       6.3327      1.00000
     21       7.1911      1.00000
     22       7.2222      1.00000
     23       7.4473      1.00000
     24       7.4642      1.00000
     25       7.5322      1.00000
     26       7.5518      1.00000
     27       7.7570      1.00000
     28       7.7618      1.00000
     29       7.9875      1.00000
     30       7.9971      1.00000
     31       8.4916      1.00000
     32       8.4964      1.00000
     33       9.9241      1.00000
     34       9.9787      1.00000
     35      10.0430      1.00000
     36      10.0558      1.00000
     37      10.0952      1.00000
     38      10.1327      1.00000
     39      10.2971      1.00000
     40      10.3468      1.00000
     41      10.6741      1.00000
     42      10.7454      1.00000
     43      10.7624      1.00000
     44      10.7961      1.00000
     45      10.8427      0.99994
     46      10.8661      0.87994
     47      11.0934      0.00000
     48      11.1169      0.00000
     49      11.5010      0.00000
     50      11.6627      0.00000
     51      11.9496      0.00000
     52      12.5591      0.00000
     53      12.7400      0.00000
     54      12.8873      0.00000
     55      13.8012      0.00000
     56      13.8081      0.00000

 soft charge-density along one line, spin component           1
         0         1         2         3         4         5         6         7         8         9
 total charge-density along one line

[...]

 soft charge-density along one line, spin component           4
         0         1         2         3         4         5         6         7         8         9
 total charge-density along one line

------------------------ aborting loop because EDIFF is reached ----------------------------------------

[...]

  FORCE on cell =-STRESS in cart. coord.  units (eV):
  Direction    XX          YY          ZZ          XY          YZ          ZX
  Alpha Z   267.72829   267.72829   267.72829
  Ewald   -1302.10316 -1302.10316 -1302.14811    -0.00000    -0.00000    -0.00000
  Hartree   218.05325   218.05325   217.04086    -0.00000    -0.00000    -0.00000
  E(xc)    -206.75191  -206.75191  -206.48699    -0.00000     0.00000     0.00000
  Local     185.80026   185.80026   194.18150    -0.00000     0.00000     0.00000
  n-local   -20.50717    -6.12170   -16.12552     3.42896     1.66219     3.19878
  augment   232.45379   232.45379   230.31337     0.00000    -0.00000     0.00000
  Kinetic   619.79828   632.01006   617.18101     1.20441     0.55515     0.48134
  Fock        0.00000     0.00000     0.00000     0.00000     0.00000     0.00000
  Total       7.77026     7.77026     1.68443    -0.00000     0.00000     0.00000
  in kB     204.43233   204.43233    44.31656    -0.00000     0.00000     0.00000

 VOLUME and BASIS-vectors are now :
  energy-cutoff  :      400.00
  volume of cell :       60.90
      direct lattice vectors                 reciprocal lattice vectors
     3.934021033 -0.000000000  0.000000000     0.254192845 -0.000000000  0.000000000
     0.000000000  3.934021033  0.000000000     0.000000000  0.254192845  0.000000000
     0.000000000  0.000000000  3.934803867     0.000000000  0.000000000  0.254142273

  length of vectors
     3.934021033  3.934021033  3.934803867     0.254192845  0.254192845  0.254142273

 FORCES acting on ions
    electron-ion (+dipol)            ewald-force                    non-local-force                 convergence-correction
   0.247E-13 0.233E-13 0.208E-13   -.211E-13 0.229E-14 -.123E-14   -.217E-18 0.000E+00 0.000E+00   -.319E-13 -.217E-13 -.190E-13
   -.443E-13 -.434E-13 0.169E-13   0.671E-15 -.191E-14 -.135E-14   -.424E-18 0.000E+00 0.000E+00   0.523E-13 0.504E-13 -.154E-13
   -.421E-13 0.152E-13 -.409E-13   0.266E-13 0.868E-15 0.752E-15   0.182E-17 0.000E+00 0.000E+00   0.487E-13 -.138E-13 0.481E-13
   0.166E-13 -.439E-13 -.409E-13   -.439E-14 0.122E-14 0.822E-15   0.266E-18 0.000E+00 0.000E+00   -.287E-13 0.507E-13 0.481E-13
   -.451E-13 -.487E-13 -.442E-13   0.179E-14 0.247E-14 -.100E-14   0.145E-17 0.000E+00 0.000E+00   0.404E-13 0.655E-13 0.617E-13

 POSITION                                       TOTAL-FORCE (eV/Angst)
      0.00000      0.00000      0.00000         0.000000      0.000000      0.000000
      1.96701      1.96701      0.00000         0.000000      0.000000      0.000000
      1.96701     -0.00000      1.96740        -0.000000      0.000000      0.000000
      0.00000      1.96701      1.96740         0.000000      0.000000      0.000000
    total drift:                               -0.000000      0.000000      0.000000

  FREE ENERGIE OF THE ION-ELECTRON SYSTEM (eV)
  free  energy   TOTEN  =       -26.27573617 eV

  energy  without entropy=      -26.27560618  energy(sigma->0) =      -26.27567118

 orbital moment (x)

 # of ion     p       d       tot
  1         0.000  -0.000  -0.000
  2         0.000   0.000   0.000
  3        -0.000  -0.000  -0.000
  4        -0.000   0.000   0.000
           -0.000   0.000   0.000

 orbital moment (y)

[...]

 orbital moment (z)

 # of ion     p       d       tot
  1        -0.002   0.034   0.032
  2         0.004  -0.091  -0.087
  3         0.001  -0.055  -0.054
  4         0.001  -0.055  -0.054
            0.005  -0.167  -0.163

 Spin-Orbit-Coupling matrix elements

 Ion:    1  E_soc:     -0.0157628
 l=   1
     0.0000000    -0.0025302    -0.0023448
    -0.0025302     0.0000000    -0.0025302
    -0.0023448    -0.0025302     0.0000000
 l=   2
     0.0000000    -0.0001582     0.0000000    -0.0001582    -0.0000015
    -0.0001582     0.0000000    -0.0001073     0.0000421     0.0000071
     0.0000000    -0.0001073     0.0000000    -0.0001073     0.0000000
    -0.0001582     0.0000421    -0.0001073     0.0000000     0.0000071
    -0.0000015     0.0000071     0.0000000     0.0000071     0.0000000
 l=   3
     0.0000000     0.0000000     0.0000000     0.0000000     0.0000000     0.0000000     0.0000000
     0.0000000     0.0000000     0.0000000     0.0000000     0.0000000     0.0000000     0.0000000
     0.0000000     0.0000000     0.0000000     0.0000000     0.0000000     0.0000000     0.0000000
     0.0000000     0.0000000     0.0000000     0.0000000     0.0000000     0.0000000     0.0000000
     0.0000000     0.0000000     0.0000000     0.0000000     0.0000000     0.0000000     0.0000000
     0.0000000     0.0000000     0.0000000     0.0000000     0.0000000     0.0000000     0.0000000
     0.0000000     0.0000000     0.0000000     0.0000000     0.0000000     0.0000000     0.0000000

[...]

 Ion:    4  E_soc:     -0.7702186
 l=   1
     0.0000000    -0.0353340    -0.0364850
    -0.0353340     0.0000000    -0.0351011
    -0.0364850    -0.0351011     0.0000000
 l=   2
     0.0000000    -0.0146820     0.0000000    -0.0212904    -0.0863910
    -0.0146820     0.0000000    -0.0512514    -0.0146486    -0.0155819
     0.0000000    -0.0512514     0.0000000    -0.0616646     0.0000000
    -0.0212904    -0.0146486    -0.0616646     0.0000000    -0.0126793
    -0.0863910    -0.0155819     0.0000000    -0.0126793     0.0000000
 l=   3
     0.0000000     0.0000000     0.0000000     0.0000000     0.0000000     0.0000000     0.0000000
     0.0000000     0.0000000     0.0000000     0.0000000     0.0000000     0.0000000     0.0000000
     0.0000000     0.0000000     0.0000000     0.0000000     0.0000000     0.0000000     0.0000000
     0.0000000     0.0000000     0.0000000     0.0000000     0.0000000     0.0000000     0.0000000
     0.0000000     0.0000000     0.0000000     0.0000000     0.0000000     0.0000000     0.0000000
     0.0000000     0.0000000     0.0000000     0.0000000     0.0000000     0.0000000     0.0000000
     0.0000000     0.0000000     0.0000000     0.0000000     0.0000000     0.0000000     0.0000000

 total charge

[...]

 magnetization (x)

[...]

 magnetization (y)

[...]

 magnetization (z)

# of ion       s       p       d       tot
    1        0.019   0.022   1.959   1.999
    2       -0.012   0.016  -0.164  -0.161
    3       -0.008  -0.010  -0.043  -0.062
    4       -0.003   0.003  -0.124  -0.125
tot         -0.005   0.030   1.627   1.652